Mg108 O108 - Bulk                       
   1.00000000000000     
    12.5998380000000001    0.0000000000000000    0.0000000000000000
     0.0000000000000000   12.5998380000000001    0.0000000000000000
     0.0000000000000000    0.0000000000000000   12.5998380000000001
  Mg              O             
   108   108
Direct
  0.6666669999999968  0.0000000000000000  0.0000000000000000
  0.8333330000000032  0.1666669999999968  0.0000000000000000
  0.8333330000000032  0.0000000000000000  0.1666669999999968
  0.3333330000000032  0.0000000000000000  0.0000000000000000
  0.5000000000000000  0.1666669999999968  0.0000000000000000
  0.6666669999999968  0.3333330000000032  0.0000000000000000
  0.8333330000000032  0.5000000000000000  0.0000000000000000
  0.5000000000000000  0.0000000000000000  0.1666669999999968
  0.6666669999999968  0.1666669999999968  0.1666669999999968
  0.8333330000000032  0.3333330000000032  0.1666669999999968
  0.6666669999999968  0.0000000000000000  0.3333330000000032
  0.8333330000000032  0.1666669999999968  0.3333330000000032
  0.8333330000000032  0.0000000000000000  0.5000000000000000
  0.0000000000000000  0.0000000000000000  0.0000000000000000
  0.1666669999999968  0.1666669999999968  0.0000000000000000
  0.3333330000000032  0.3333330000000032  0.0000000000000000
  0.5000000000000000  0.5000000000000000  0.0000000000000000
  0.6666669999999968  0.6666669999999968  0.0000000000000000
  0.8333330000000032  0.8333330000000032  0.0000000000000000
  0.1666669999999968  0.0000000000000000  0.1666669999999968
  0.3333330000000032  0.1666669999999968  0.1666669999999968
  0.5000000000000000  0.3333330000000032  0.1666669999999968
  0.6666669999999968  0.5000000000000000  0.1666669999999968
  0.8333330000000032  0.6666669999999968  0.1666669999999968
  0.3333330000000032  0.0000000000000000  0.3333330000000032
  0.5000000000000000  0.1666669999999968  0.3333330000000032
  0.6666669999999968  0.3333330000000032  0.3333330000000032
  0.8333330000000032  0.5000000000000000  0.3333330000000032
  0.5000000000000000  0.0000000000000000  0.5000000000000000
  0.6666669999999968  0.1666669999999968  0.5000000000000000
  0.8333330000000032  0.3333330000000032  0.5000000000000000
  0.6666669999999968  0.0000000000000000  0.6666669999999968
  0.8333330000000032  0.1666669999999968  0.6666669999999968
  0.8333330000000032  0.0000000000000000  0.8333330000000032
  0.0000000000000000  0.3333330000000032  0.0000000000000000
  0.1666669999999968  0.5000000000000000  0.0000000000000000
  0.3333330000000032  0.6666669999999968  0.0000000000000000
  0.5000000000000000  0.8333330000000032  0.0000000000000000
  0.0000000000000000  0.1666669999999968  0.1666669999999968
  0.1666669999999968  0.3333330000000032  0.1666669999999968
  0.3333330000000032  0.5000000000000000  0.1666669999999968
  0.5000000000000000  0.6666669999999968  0.1666669999999968
  0.6666669999999968  0.8333330000000032  0.1666669999999968
  0.0000000000000000  0.0000000000000000  0.3333330000000032
  0.1666669999999968  0.1666669999999968  0.3333330000000032
  0.3333330000000032  0.3333330000000032  0.3333330000000032
  0.5000000000000000  0.5000000000000000  0.3333330000000032
  0.6666669999999968  0.6666669999999968  0.3333330000000032
  0.8333330000000032  0.8333330000000032  0.3333330000000032
  0.1666669999999968  0.0000000000000000  0.5000000000000000
  0.3333330000000032  0.1666669999999968  0.5000000000000000
  0.5000000000000000  0.3333330000000032  0.5000000000000000
  0.6666669999999968  0.5000000000000000  0.5000000000000000
  0.8333330000000032  0.6666669999999968  0.5000000000000000
  0.3333330000000032  0.0000000000000000  0.6666669999999968
  0.5000000000000000  0.1666669999999968  0.6666669999999968
  0.6666669999999968  0.3333330000000032  0.6666669999999968
  0.8333330000000032  0.5000000000000000  0.6666669999999968
  0.5000000000000000  0.0000000000000000  0.8333330000000032
  0.6666669999999968  0.1666669999999968  0.8333330000000032
  0.8333330000000032  0.3333330000000032  0.8333330000000032
  0.0000000000000000  0.6666669999999968  0.0000000000000000
  0.1666669999999968  0.8333330000000032  0.0000000000000000
  0.0000000000000000  0.5000000000000000  0.1666669999999968
  0.1666669999999968  0.6666669999999968  0.1666669999999968
  0.3333330000000032  0.8333330000000032  0.1666669999999968
  0.0000000000000000  0.3333330000000032  0.3333330000000032
  0.1666669999999968  0.5000000000000000  0.3333330000000032
  0.3333330000000032  0.6666669999999968  0.3333330000000032
  0.5000000000000000  0.8333330000000032  0.3333330000000032
  0.0000000000000000  0.1666669999999968  0.5000000000000000
  0.1666669999999968  0.3333330000000032  0.5000000000000000
  0.3333330000000032  0.5000000000000000  0.5000000000000000
  0.5000000000000000  0.6666669999999968  0.5000000000000000
  0.6666669999999968  0.8333330000000032  0.5000000000000000
  0.0000000000000000  0.0000000000000000  0.6666669999999968
  0.1666669999999968  0.1666669999999968  0.6666669999999968
  0.3333330000000032  0.3333330000000032  0.6666669999999968
  0.5000000000000000  0.5000000000000000  0.6666669999999968
  0.6666669999999968  0.6666669999999968  0.6666669999999968
  0.8333330000000032  0.8333330000000032  0.6666669999999968
  0.1666669999999968  0.0000000000000000  0.8333330000000032
  0.3333330000000032  0.1666669999999968  0.8333330000000032
  0.5000000000000000  0.3333330000000032  0.8333330000000032
  0.6666669999999968  0.5000000000000000  0.8333330000000032
  0.8333330000000032  0.6666669999999968  0.8333330000000032
  0.0000000000000000  0.8333330000000032  0.1666669999999968
  0.0000000000000000  0.6666669999999968  0.3333330000000032
  0.1666669999999968  0.8333330000000032  0.3333330000000032
  0.0000000000000000  0.5000000000000000  0.5000000000000000
  0.1666669999999968  0.6666669999999968  0.5000000000000000
  0.3333330000000032  0.8333330000000032  0.5000000000000000
  0.0000000000000000  0.3333330000000032  0.6666669999999968
  0.1666669999999968  0.5000000000000000  0.6666669999999968
  0.3333330000000032  0.6666669999999968  0.6666669999999968
  0.5000000000000000  0.8333330000000032  0.6666669999999968
  0.0000000000000000  0.1666669999999968  0.8333330000000032
  0.1666669999999968  0.3333330000000032  0.8333330000000032
  0.3333330000000032  0.5000000000000000  0.8333330000000032
  0.5000000000000000  0.6666669999999968  0.8333330000000032
  0.6666669999999968  0.8333330000000032  0.8333330000000032
  0.0000000000000000  0.8333330000000032  0.5000000000000000
  0.0000000000000000  0.6666669999999968  0.6666669999999968
  0.1666669999999968  0.8333330000000032  0.6666669999999968
  0.0000000000000000  0.5000000000000000  0.8333330000000032
  0.1666669999999968  0.6666669999999968  0.8333330000000032
  0.3333330000000032  0.8333330000000032  0.8333330000000032
  0.0000000000000000  0.8333330000000032  0.8333330000000032
  0.8333330000000032  0.1666669999999968  0.1666669999999968
  0.0000000000000000  0.3333330000000032  0.1666669999999968
  0.0000000000000000  0.1666669999999968  0.3333330000000032
  0.5000000000000000  0.1666669999999968  0.1666669999999968
  0.6666669999999968  0.3333330000000032  0.1666669999999968
  0.8333330000000032  0.5000000000000000  0.1666669999999968
  0.0000000000000000  0.6666669999999968  0.1666669999999968
  0.6666669999999968  0.1666669999999968  0.3333330000000032
  0.8333330000000032  0.3333330000000032  0.3333330000000032
  0.0000000000000000  0.5000000000000000  0.3333330000000032
  0.8333330000000032  0.1666669999999968  0.5000000000000000
  0.0000000000000000  0.3333330000000032  0.5000000000000000
  0.0000000000000000  0.1666669999999968  0.6666669999999968
  0.1666669999999968  0.1666669999999968  0.1666669999999968
  0.3333330000000032  0.3333330000000032  0.1666669999999968
  0.5000000000000000  0.5000000000000000  0.1666669999999968
  0.6666669999999968  0.6666669999999968  0.1666669999999968
  0.8333330000000032  0.8333330000000032  0.1666669999999968
  0.0000000000000000  0.0000000000000000  0.1666669999999968
  0.3333330000000032  0.1666669999999968  0.3333330000000032
  0.5000000000000000  0.3333330000000032  0.3333330000000032
  0.6666669999999968  0.5000000000000000  0.3333330000000032
  0.8333330000000032  0.6666669999999968  0.3333330000000032
  0.0000000000000000  0.8333330000000032  0.3333330000000032
  0.5000000000000000  0.1666669999999968  0.5000000000000000
  0.6666669999999968  0.3333330000000032  0.5000000000000000
  0.8333330000000032  0.5000000000000000  0.5000000000000000
  0.0000000000000000  0.6666669999999968  0.5000000000000000
  0.6666669999999968  0.1666669999999968  0.6666669999999968
  0.8333330000000032  0.3333330000000032  0.6666669999999968
  0.0000000000000000  0.5000000000000000  0.6666669999999968
  0.8333330000000032  0.1666669999999968  0.8333330000000032
  0.0000000000000000  0.3333330000000032  0.8333330000000032
  0.0000000000000000  0.1666669999999968  0.0000000000000000
  0.1666669999999968  0.5000000000000000  0.1666669999999968
  0.3333330000000032  0.6666669999999968  0.1666669999999968
  0.5000000000000000  0.8333330000000032  0.1666669999999968
  0.6666669999999968  0.0000000000000000  0.1666669999999968
  0.1666669999999968  0.3333330000000032  0.3333330000000032
  0.3333330000000032  0.5000000000000000  0.3333330000000032
  0.5000000000000000  0.6666669999999968  0.3333330000000032
  0.6666669999999968  0.8333330000000032  0.3333330000000032
  0.8333330000000032  0.0000000000000000  0.3333330000000032
  0.1666669999999968  0.1666669999999968  0.5000000000000000
  0.3333330000000032  0.3333330000000032  0.5000000000000000
  0.5000000000000000  0.5000000000000000  0.5000000000000000
  0.6666669999999968  0.6666669999999968  0.5000000000000000
  0.8333330000000032  0.8333330000000032  0.5000000000000000
  0.0000000000000000  0.0000000000000000  0.5000000000000000
  0.3333330000000032  0.1666669999999968  0.6666669999999968
  0.5000000000000000  0.3333330000000032  0.6666669999999968
  0.6666669999999968  0.5000000000000000  0.6666669999999968
  0.8333330000000032  0.6666669999999968  0.6666669999999968
  0.0000000000000000  0.8333330000000032  0.6666669999999968
  0.5000000000000000  0.1666669999999968  0.8333330000000032
  0.6666669999999968  0.3333330000000032  0.8333330000000032
  0.8333330000000032  0.5000000000000000  0.8333330000000032
  0.0000000000000000  0.6666669999999968  0.8333330000000032
  0.6666669999999968  0.1666669999999968  0.0000000000000000
  0.8333330000000032  0.3333330000000032  0.0000000000000000
  0.0000000000000000  0.5000000000000000  0.0000000000000000
  0.1666669999999968  0.8333330000000032  0.1666669999999968
  0.3333330000000032  0.0000000000000000  0.1666669999999968
  0.1666669999999968  0.6666669999999968  0.3333330000000032
  0.3333330000000032  0.8333330000000032  0.3333330000000032
  0.5000000000000000  0.0000000000000000  0.3333330000000032
  0.1666669999999968  0.5000000000000000  0.5000000000000000
  0.3333330000000032  0.6666669999999968  0.5000000000000000
  0.5000000000000000  0.8333330000000032  0.5000000000000000
  0.6666669999999968  0.0000000000000000  0.5000000000000000
  0.1666669999999968  0.3333330000000032  0.6666669999999968
  0.3333330000000032  0.5000000000000000  0.6666669999999968
  0.5000000000000000  0.6666669999999968  0.6666669999999968
  0.6666669999999968  0.8333330000000032  0.6666669999999968
  0.8333330000000032  0.0000000000000000  0.6666669999999968
  0.1666669999999968  0.1666669999999968  0.8333330000000032
  0.3333330000000032  0.3333330000000032  0.8333330000000032
  0.5000000000000000  0.5000000000000000  0.8333330000000032
  0.6666669999999968  0.6666669999999968  0.8333330000000032
  0.8333330000000032  0.8333330000000032  0.8333330000000032
  0.0000000000000000  0.0000000000000000  0.8333330000000032
  0.3333330000000032  0.1666669999999968  0.0000000000000000
  0.5000000000000000  0.3333330000000032  0.0000000000000000
  0.6666669999999968  0.5000000000000000  0.0000000000000000
  0.8333330000000032  0.6666669999999968  0.0000000000000000
  0.0000000000000000  0.8333330000000032  0.0000000000000000
  0.1666669999999968  0.0000000000000000  0.3333330000000032
  0.1666669999999968  0.8333330000000032  0.5000000000000000
  0.3333330000000032  0.0000000000000000  0.5000000000000000
  0.1666669999999968  0.6666669999999968  0.6666669999999968
  0.3333330000000032  0.8333330000000032  0.6666669999999968
  0.5000000000000000  0.0000000000000000  0.6666669999999968
  0.1666669999999968  0.5000000000000000  0.8333330000000032
  0.3333330000000032  0.6666669999999968  0.8333330000000032
  0.5000000000000000  0.8333330000000032  0.8333330000000032
  0.6666669999999968  0.0000000000000000  0.8333330000000032
  0.1666669999999968  0.3333330000000032  0.0000000000000000
  0.3333330000000032  0.5000000000000000  0.0000000000000000
  0.5000000000000000  0.6666669999999968  0.0000000000000000
  0.6666669999999968  0.8333330000000032  0.0000000000000000
  0.8333330000000032  0.0000000000000000  0.0000000000000000
  0.1666669999999968  0.0000000000000000  0.6666669999999968
  0.1666669999999968  0.8333330000000032  0.8333330000000032
  0.3333330000000032  0.0000000000000000  0.8333330000000032
  0.1666669999999968  0.6666669999999968  0.0000000000000000
  0.3333330000000032  0.8333330000000032  0.0000000000000000
  0.5000000000000000  0.0000000000000000  0.0000000000000000
  0.1666669999999968  0.0000000000000000  0.0000000000000000
 
  0.00000000E+00  0.00000000E+00  0.00000000E+00
  0.00000000E+00  0.00000000E+00  0.00000000E+00
  0.00000000E+00  0.00000000E+00  0.00000000E+00
  0.00000000E+00  0.00000000E+00  0.00000000E+00
  0.00000000E+00  0.00000000E+00  0.00000000E+00
  0.00000000E+00  0.00000000E+00  0.00000000E+00
  0.00000000E+00  0.00000000E+00  0.00000000E+00
  0.00000000E+00  0.00000000E+00  0.00000000E+00
  0.00000000E+00  0.00000000E+00  0.00000000E+00
  0.00000000E+00  0.00000000E+00  0.00000000E+00
  0.00000000E+00  0.00000000E+00  0.00000000E+00
  0.00000000E+00  0.00000000E+00  0.00000000E+00
  0.00000000E+00  0.00000000E+00  0.00000000E+00
  0.00000000E+00  0.00000000E+00  0.00000000E+00
  0.00000000E+00  0.00000000E+00  0.00000000E+00
  0.00000000E+00  0.00000000E+00  0.00000000E+00
  0.00000000E+00  0.00000000E+00  0.00000000E+00
  0.00000000E+00  0.00000000E+00  0.00000000E+00
  0.00000000E+00  0.00000000E+00  0.00000000E+00
  0.00000000E+00  0.00000000E+00  0.00000000E+00
  0.00000000E+00  0.00000000E+00  0.00000000E+00
  0.00000000E+00  0.00000000E+00  0.00000000E+00
  0.00000000E+00  0.00000000E+00  0.00000000E+00
  0.00000000E+00  0.00000000E+00  0.00000000E+00
  0.00000000E+00  0.00000000E+00  0.00000000E+00
  0.00000000E+00  0.00000000E+00  0.00000000E+00
  0.00000000E+00  0.00000000E+00  0.00000000E+00
  0.00000000E+00  0.00000000E+00  0.00000000E+00
  0.00000000E+00  0.00000000E+00  0.00000000E+00
  0.00000000E+00  0.00000000E+00  0.00000000E+00
  0.00000000E+00  0.00000000E+00  0.00000000E+00
  0.00000000E+00  0.00000000E+00  0.00000000E+00
  0.00000000E+00  0.00000000E+00  0.00000000E+00
  0.00000000E+00  0.00000000E+00  0.00000000E+00
  0.00000000E+00  0.00000000E+00  0.00000000E+00
  0.00000000E+00  0.00000000E+00  0.00000000E+00
  0.00000000E+00  0.00000000E+00  0.00000000E+00
  0.00000000E+00  0.00000000E+00  0.00000000E+00
  0.00000000E+00  0.00000000E+00  0.00000000E+00
  0.00000000E+00  0.00000000E+00  0.00000000E+00
  0.00000000E+00  0.00000000E+00  0.00000000E+00
  0.00000000E+00  0.00000000E+00  0.00000000E+00
  0.00000000E+00  0.00000000E+00  0.00000000E+00
  0.00000000E+00  0.00000000E+00  0.00000000E+00
  0.00000000E+00  0.00000000E+00  0.00000000E+00
  0.00000000E+00  0.00000000E+00  0.00000000E+00
  0.00000000E+00  0.00000000E+00  0.00000000E+00
  0.00000000E+00  0.00000000E+00  0.00000000E+00
  0.00000000E+00  0.00000000E+00  0.00000000E+00
  0.00000000E+00  0.00000000E+00  0.00000000E+00
  0.00000000E+00  0.00000000E+00  0.00000000E+00
  0.00000000E+00  0.00000000E+00  0.00000000E+00
  0.00000000E+00  0.00000000E+00  0.00000000E+00
  0.00000000E+00  0.00000000E+00  0.00000000E+00
  0.00000000E+00  0.00000000E+00  0.00000000E+00
  0.00000000E+00  0.00000000E+00  0.00000000E+00
  0.00000000E+00  0.00000000E+00  0.00000000E+00
  0.00000000E+00  0.00000000E+00  0.00000000E+00
  0.00000000E+00  0.00000000E+00  0.00000000E+00
  0.00000000E+00  0.00000000E+00  0.00000000E+00
  0.00000000E+00  0.00000000E+00  0.00000000E+00
  0.00000000E+00  0.00000000E+00  0.00000000E+00
  0.00000000E+00  0.00000000E+00  0.00000000E+00
  0.00000000E+00  0.00000000E+00  0.00000000E+00
  0.00000000E+00  0.00000000E+00  0.00000000E+00
  0.00000000E+00  0.00000000E+00  0.00000000E+00
  0.00000000E+00  0.00000000E+00  0.00000000E+00
  0.00000000E+00  0.00000000E+00  0.00000000E+00
  0.00000000E+00  0.00000000E+00  0.00000000E+00
  0.00000000E+00  0.00000000E+00  0.00000000E+00
  0.00000000E+00  0.00000000E+00  0.00000000E+00
  0.00000000E+00  0.00000000E+00  0.00000000E+00
  0.00000000E+00  0.00000000E+00  0.00000000E+00
  0.00000000E+00  0.00000000E+00  0.00000000E+00
  0.00000000E+00  0.00000000E+00  0.00000000E+00
  0.00000000E+00  0.00000000E+00  0.00000000E+00
  0.00000000E+00  0.00000000E+00  0.00000000E+00
  0.00000000E+00  0.00000000E+00  0.00000000E+00
  0.00000000E+00  0.00000000E+00  0.00000000E+00
  0.00000000E+00  0.00000000E+00  0.00000000E+00
  0.00000000E+00  0.00000000E+00  0.00000000E+00
  0.00000000E+00  0.00000000E+00  0.00000000E+00
  0.00000000E+00  0.00000000E+00  0.00000000E+00
  0.00000000E+00  0.00000000E+00  0.00000000E+00
  0.00000000E+00  0.00000000E+00  0.00000000E+00
  0.00000000E+00  0.00000000E+00  0.00000000E+00
  0.00000000E+00  0.00000000E+00  0.00000000E+00
  0.00000000E+00  0.00000000E+00  0.00000000E+00
  0.00000000E+00  0.00000000E+00  0.00000000E+00
  0.00000000E+00  0.00000000E+00  0.00000000E+00
  0.00000000E+00  0.00000000E+00  0.00000000E+00
  0.00000000E+00  0.00000000E+00  0.00000000E+00
  0.00000000E+00  0.00000000E+00  0.00000000E+00
  0.00000000E+00  0.00000000E+00  0.00000000E+00
  0.00000000E+00  0.00000000E+00  0.00000000E+00
  0.00000000E+00  0.00000000E+00  0.00000000E+00
  0.00000000E+00  0.00000000E+00  0.00000000E+00
  0.00000000E+00  0.00000000E+00  0.00000000E+00
  0.00000000E+00  0.00000000E+00  0.00000000E+00
  0.00000000E+00  0.00000000E+00  0.00000000E+00
  0.00000000E+00  0.00000000E+00  0.00000000E+00
  0.00000000E+00  0.00000000E+00  0.00000000E+00
  0.00000000E+00  0.00000000E+00  0.00000000E+00
  0.00000000E+00  0.00000000E+00  0.00000000E+00
  0.00000000E+00  0.00000000E+00  0.00000000E+00
  0.00000000E+00  0.00000000E+00  0.00000000E+00
  0.00000000E+00  0.00000000E+00  0.00000000E+00
  0.00000000E+00  0.00000000E+00  0.00000000E+00
  0.00000000E+00  0.00000000E+00  0.00000000E+00
  0.00000000E+00  0.00000000E+00  0.00000000E+00
  0.00000000E+00  0.00000000E+00  0.00000000E+00
  0.00000000E+00  0.00000000E+00  0.00000000E+00
  0.00000000E+00  0.00000000E+00  0.00000000E+00
  0.00000000E+00  0.00000000E+00  0.00000000E+00
  0.00000000E+00  0.00000000E+00  0.00000000E+00
  0.00000000E+00  0.00000000E+00  0.00000000E+00
  0.00000000E+00  0.00000000E+00  0.00000000E+00
  0.00000000E+00  0.00000000E+00  0.00000000E+00
  0.00000000E+00  0.00000000E+00  0.00000000E+00
  0.00000000E+00  0.00000000E+00  0.00000000E+00
  0.00000000E+00  0.00000000E+00  0.00000000E+00
  0.00000000E+00  0.00000000E+00  0.00000000E+00
  0.00000000E+00  0.00000000E+00  0.00000000E+00
  0.00000000E+00  0.00000000E+00  0.00000000E+00
  0.00000000E+00  0.00000000E+00  0.00000000E+00
  0.00000000E+00  0.00000000E+00  0.00000000E+00
  0.00000000E+00  0.00000000E+00  0.00000000E+00
  0.00000000E+00  0.00000000E+00  0.00000000E+00
  0.00000000E+00  0.00000000E+00  0.00000000E+00
  0.00000000E+00  0.00000000E+00  0.00000000E+00
  0.00000000E+00  0.00000000E+00  0.00000000E+00
  0.00000000E+00  0.00000000E+00  0.00000000E+00
  0.00000000E+00  0.00000000E+00  0.00000000E+00
  0.00000000E+00  0.00000000E+00  0.00000000E+00
  0.00000000E+00  0.00000000E+00  0.00000000E+00
  0.00000000E+00  0.00000000E+00  0.00000000E+00
  0.00000000E+00  0.00000000E+00  0.00000000E+00
  0.00000000E+00  0.00000000E+00  0.00000000E+00
  0.00000000E+00  0.00000000E+00  0.00000000E+00
  0.00000000E+00  0.00000000E+00  0.00000000E+00
  0.00000000E+00  0.00000000E+00  0.00000000E+00
  0.00000000E+00  0.00000000E+00  0.00000000E+00
  0.00000000E+00  0.00000000E+00  0.00000000E+00
  0.00000000E+00  0.00000000E+00  0.00000000E+00
  0.00000000E+00  0.00000000E+00  0.00000000E+00
  0.00000000E+00  0.00000000E+00  0.00000000E+00
  0.00000000E+00  0.00000000E+00  0.00000000E+00
  0.00000000E+00  0.00000000E+00  0.00000000E+00
  0.00000000E+00  0.00000000E+00  0.00000000E+00
  0.00000000E+00  0.00000000E+00  0.00000000E+00
  0.00000000E+00  0.00000000E+00  0.00000000E+00
  0.00000000E+00  0.00000000E+00  0.00000000E+00
  0.00000000E+00  0.00000000E+00  0.00000000E+00
  0.00000000E+00  0.00000000E+00  0.00000000E+00
  0.00000000E+00  0.00000000E+00  0.00000000E+00
  0.00000000E+00  0.00000000E+00  0.00000000E+00
  0.00000000E+00  0.00000000E+00  0.00000000E+00
  0.00000000E+00  0.00000000E+00  0.00000000E+00
  0.00000000E+00  0.00000000E+00  0.00000000E+00
  0.00000000E+00  0.00000000E+00  0.00000000E+00
  0.00000000E+00  0.00000000E+00  0.00000000E+00
  0.00000000E+00  0.00000000E+00  0.00000000E+00
  0.00000000E+00  0.00000000E+00  0.00000000E+00
  0.00000000E+00  0.00000000E+00  0.00000000E+00
  0.00000000E+00  0.00000000E+00  0.00000000E+00
  0.00000000E+00  0.00000000E+00  0.00000000E+00
  0.00000000E+00  0.00000000E+00  0.00000000E+00
  0.00000000E+00  0.00000000E+00  0.00000000E+00
  0.00000000E+00  0.00000000E+00  0.00000000E+00
  0.00000000E+00  0.00000000E+00  0.00000000E+00
  0.00000000E+00  0.00000000E+00  0.00000000E+00
  0.00000000E+00  0.00000000E+00  0.00000000E+00
  0.00000000E+00  0.00000000E+00  0.00000000E+00
  0.00000000E+00  0.00000000E+00  0.00000000E+00
  0.00000000E+00  0.00000000E+00  0.00000000E+00
  0.00000000E+00  0.00000000E+00  0.00000000E+00
  0.00000000E+00  0.00000000E+00  0.00000000E+00
  0.00000000E+00  0.00000000E+00  0.00000000E+00
  0.00000000E+00  0.00000000E+00  0.00000000E+00
  0.00000000E+00  0.00000000E+00  0.00000000E+00
  0.00000000E+00  0.00000000E+00  0.00000000E+00
  0.00000000E+00  0.00000000E+00  0.00000000E+00
  0.00000000E+00  0.00000000E+00  0.00000000E+00
  0.00000000E+00  0.00000000E+00  0.00000000E+00
  0.00000000E+00  0.00000000E+00  0.00000000E+00
  0.00000000E+00  0.00000000E+00  0.00000000E+00
  0.00000000E+00  0.00000000E+00  0.00000000E+00
  0.00000000E+00  0.00000000E+00  0.00000000E+00
  0.00000000E+00  0.00000000E+00  0.00000000E+00
  0.00000000E+00  0.00000000E+00  0.00000000E+00
  0.00000000E+00  0.00000000E+00  0.00000000E+00
  0.00000000E+00  0.00000000E+00  0.00000000E+00
  0.00000000E+00  0.00000000E+00  0.00000000E+00
  0.00000000E+00  0.00000000E+00  0.00000000E+00
  0.00000000E+00  0.00000000E+00  0.00000000E+00
  0.00000000E+00  0.00000000E+00  0.00000000E+00
  0.00000000E+00  0.00000000E+00  0.00000000E+00
  0.00000000E+00  0.00000000E+00  0.00000000E+00
  0.00000000E+00  0.00000000E+00  0.00000000E+00
  0.00000000E+00  0.00000000E+00  0.00000000E+00
  0.00000000E+00  0.00000000E+00  0.00000000E+00
  0.00000000E+00  0.00000000E+00  0.00000000E+00
  0.00000000E+00  0.00000000E+00  0.00000000E+00
  0.00000000E+00  0.00000000E+00  0.00000000E+00
  0.00000000E+00  0.00000000E+00  0.00000000E+00
  0.00000000E+00  0.00000000E+00  0.00000000E+00
  0.00000000E+00  0.00000000E+00  0.00000000E+00
  0.00000000E+00  0.00000000E+00  0.00000000E+00
  0.00000000E+00  0.00000000E+00  0.00000000E+00
  0.00000000E+00  0.00000000E+00  0.00000000E+00
  0.00000000E+00  0.00000000E+00  0.00000000E+00
  0.00000000E+00  0.00000000E+00  0.00000000E+00
  0.00000000E+00  0.00000000E+00  0.00000000E+00
  0.00000000E+00  0.00000000E+00  0.00000000E+00
  0.00000000E+00  0.00000000E+00  0.00000000E+00
  0.00000000E+00  0.00000000E+00  0.00000000E+00
